c t wmc
c file mc2022_track2_021.cnf
p cnf 66 352
58 -14 52 -51 -40 0
7 39 -22 -26 56 0
-19 20 64 34 -3 0
-34 -3 -16 -37 -18 0
-34 -3 -16 37 18 0
-17 -54 60 -43 -36 0
-26 56 -12 -6 66 0
-26 56 -12 6 -66 0
51 -40 24 -19 -20 0
-28 59 -45 -7 39 0
-26 56 12 -6 -66 0
-58 14 -52 -51 40 0
-51 40 24 19 20 0
17 -54 -60 43 36 0
-5 -31 -41 50 57 0
27 48 25 15 62 0
37 -18 -30 -46 35 0
1 -65 21 13 -9 0
-6 -66 53 61 33 0
43 36 -63 -58 -14 0
27 48 -25 15 -62 0
-19 -20 -64 -34 3 0
19 20 -64 34 -3 0
1 65 -21 13 -9 0
19 -20 -64 34 3 0
42 32 -11 17 54 0
-17 -54 -60 -43 36 0
50 57 -49 -1 65 0
42 32 11 17 -54 0
43 -36 63 58 14 0
46 -35 4 -38 44 0
-5 31 -41 50 -57 0
47 -8 -23 28 -59 0
7 39 22 -26 -56 0
-1 65 21 -13 9 0
13 -9 -10 42 32 0
-38 -44 -55 -47 8 0
-38 44 55 -47 8 0
50 57 49 -1 -65 0
-34 3 -16 37 -18 0
13 -9 10 42 -32 0
-28 -59 -45 -7 -39 0
42 32 11 -17 54 0
26 -56 12 6 66 0
13 -9 10 -42 32 0
-47 -8 23 28 -59 0
-46 35 -4 38 44 0
5 31 -41 -50 -57 0
38 44 -55 47 -8 0
-1 -65 -21 13 -9 0
50 57 -49 1 -65 0
15 62 -29 5 31 0
-51 40 24 -19 -20 0
51 40 24 -19 20 0
-51 40 -24 -19 20 0
7 39 22 26 56 0
-13 -9 10 -42 -32 0
-34 3 16 -37 -18 0
-26 -56 -12 6 66 0
-6 66 -53 -61 -33 0
47 8 -23 -28 -59 0
-46 -35 4 -38 -44 0
-5 -31 41 -50 57 0
-42 32 -11 17 -54 0
50 -57 49 1 -65 0
-26 -56 -12 -6 -66 0
-43 36 63 58 14 0
-46 -35 -4 -38 44 0
6 -66 53 61 -33 0
-37 -18 -30 46 35 0
-13 -9 -10 -42 32 0
-47 8 23 -28 -59 0
-13 9 10 -42 32 0
50 57 49 1 65 0
-58 -14 -52 -51 -40 0
-13 -9 -10 42 -32 0
-27 48 -25 -15 -62 0
-43 -36 63 -58 14 0
26 56 -12 6 66 0
-26 -56 12 6 -66 0
61 -33 2 27 -48 0
28 -59 45 -7 -39 0
46 35 -4 -38 44 0
-17 -54 -60 43 -36 0
-43 36 -63 -58 14 0
34 3 16 -37 18 0
-37 18 30 46 35 0
-1 -65 21 13 9 0
58 -14 52 51 40 0
46 -35 -4 38 44 0
38 44 55 47 8 0
19 20 64 34 3 0
5 -31 -41 -50 57 0
-61 33 2 -27 48 0
61 -33 -2 -27 -48 0
-47 -8 23 -28 59 0
-34 3 -16 -37 18 0
61 33 -2 27 -48 0
26 56 12 -6 66 0
1 -65 -21 -13 -9 0
-27 48 25 15 -62 0
46 35 4 -38 -44 0
-1 65 -21 13 9 0
-7 39 22 26 -56 0
-6 66 53 -61 33 0
43 -36 63 -58 -14 0
28 -59 -45 -7 39 0
37 -18 -30 46 -35 0
43 36 63 58 -14 0
-28 -59 45 -7 39 0
27 -48 -25 15 62 0
-43 -36 -63 58 14 0
-38 -44 55 -47 -8 0
-13 9 10 42 -32 0
-7 39 22 -26 56 0
38 -44 55 -47 8 0
-7 -39 22 -26 -56 0
1 -65 21 -13 9 0
-46 35 4 -38 44 0
58 14 52 -51 40 0
50 -57 -49 -1 -65 0
43 -36 -63 58 -14 0
-51 -40 -24 -19 -20 0
34 3 -16 37 18 0
7 -39 -22 -26 -56 0
-7 -39 22 26 56 0
38 44 -55 -47 8 0
42 -32 11 -17 -54 0
-5 -31 -41 -50 -57 0
-46 35 -4 -38 -44 0
15 -62 29 5 31 0
-50 -57 -49 1 -65 0
6 -66 53 -61 33 0
37 18 30 -46 35 0
19 20 64 -34 -3 0
-37 -18 30 46 -35 0
6 66 53 -61 -33 0
5 -31 41 50 57 0
17 54 -60 -43 36 0
34 3 -16 -37 -18 0
27 -48 25 15 -62 0
-50 57 -49 1 65 0
1 -65 -21 13 9 0
13 9 10 -42 -32 0
13 9 -10 42 -32 0
-15 62 29 5 31 0
-7 39 -22 -26 -56 0
-13 -9 10 42 32 0
-17 54 60 43 -36 0
-27 48 -25 15 62 0
-50 57 49 -1 65 0
38 -44 -55 -47 -8 0
13 9 10 42 32 0
13 9 -10 -42 32 0
-15 -62 29 5 -31 0
61 33 2 -27 -48 0
38 44 55 -47 -8 0
26 56 12 6 -66 0
1 65 21 -13 -9 0
-7 -39 -22 -26 56 0
15 -62 -29 5 -31 0
27 -48 25 -15 62 0
37 18 -30 46 35 0
-58 -14 52 51 -40 0
-38 44 55 47 -8 0
-42 -32 11 -17 54 0
28 59 -45 7 39 0
-6 -66 -53 61 -33 0
-27 -48 -25 15 -62 0
-6 66 -53 61 33 0
19 -20 -64 -34 -3 0
-61 33 -2 27 48 0
-17 -54 60 43 36 0
-6 66 53 61 -33 0
-47 8 23 28 59 0
-38 44 -55 47 8 0
-50 -57 49 1 65 0
28 59 45 7 -39 0
6 -66 -53 61 33 0
34 -3 -16 37 -18 0
27 48 25 -15 -62 0
28 -59 -45 7 -39 0
-19 -20 64 34 3 0
-47 -8 -23 28 59 0
47 -8 -23 -28 59 0
-37 18 -30 46 -35 0
15 62 -29 -5 -31 0
-51 -40 24 19 -20 0
26 -56 -12 -6 66 0
46 -35 4 38 -44 0
28 -59 45 7 39 0
42 -32 11 17 54 0
27 48 -25 -15 62 0
34 -3 -16 -37 18 0
58 14 -52 -51 -40 0
34 -3 16 37 18 0
-6 -66 -53 -61 33 0
-42 -32 -11 -17 -54 0
-34 -3 16 37 -18 0
26 56 -12 -6 -66 0
37 -18 30 -46 -35 0
5 31 41 50 -57 0
7 -39 22 26 -56 0
5 31 41 -50 57 0
61 33 -2 -27 48 0
42 32 -11 -17 -54 0
-19 20 64 -34 3 0
-5 31 41 -50 -57 0
5 31 -41 50 57 0
-58 14 52 51 40 0
-47 8 -23 28 -59 0
1 65 -21 -13 9 0
58 14 -52 51 40 0
46 -35 -4 -38 -44 0
58 14 52 51 -40 0
-37 -18 -30 -46 -35 0
6 66 -53 -61 33 0
-58 14 52 -51 -40 0
-38 44 -55 -47 -8 0
61 33 2 27 48 0
-51 40 -24 19 -20 0
-19 -20 -64 34 -3 0
50 -57 -49 1 65 0
-5 31 -41 -50 57 0
17 -54 60 -43 36 0
-1 65 21 13 -9 0
-42 32 11 17 54 0
19 20 -64 -34 3 0
-42 32 11 -17 -54 0
-51 -40 24 -19 20 0
19 -20 64 34 -3 0
-42 -32 11 17 -54 0
-28 59 45 -7 -39 0
15 -62 -29 -5 31 0
-38 -44 55 47 8 0
17 54 60 43 36 0
17 54 -60 43 -36 0
-1 -65 21 -13 -9 0
-46 -35 4 38 44 0
-51 -40 -24 19 20 0
58 -14 -52 51 -40 0
46 35 -4 38 -44 0
58 -14 -52 -51 40 0
-27 -48 25 -15 -62 0
42 -32 -11 -17 54 0
-43 -36 -63 -58 -14 0
-13 9 -10 42 32 0
-61 -33 -2 -27 48 0
-61 33 2 27 -48 0
-34 3 16 37 18 0
61 -33 2 -27 48 0
47 8 -23 28 59 0
-37 18 30 -46 -35 0
43 36 -63 58 14 0
-61 -33 -2 27 -48 0
37 18 30 46 -35 0
-47 -8 -23 -28 -59 0
-50 57 49 1 -65 0
-28 -59 -45 7 39 0
43 -36 -63 -58 14 0
-15 -62 -29 -5 -31 0
37 18 -30 -46 -35 0
6 66 53 61 33 0
-61 33 -2 -27 -48 0
-6 -66 53 -61 -33 0
7 -39 22 -26 56 0
1 65 21 13 9 0
-37 -18 30 -46 35 0
-1 -65 -21 -13 9 0
-15 62 -29 5 -31 0
-50 57 -49 -1 -65 0
26 -56 -12 6 -66 0
17 -54 60 43 -36 0
15 -62 29 -5 -31 0
51 40 24 19 -20 0
47 -8 23 -28 -59 0
28 59 45 -7 39 0
51 -40 -24 19 -20 0
-58 14 -52 51 -40 0
-50 -57 49 -1 -65 0
47 -8 23 28 59 0
61 -33 -2 27 48 0
-7 -39 -22 26 -56 0
-42 -32 -11 17 54 0
51 -40 24 19 20 0
-38 -44 -55 47 -8 0
-50 -57 -49 -1 65 0
-28 59 45 7 39 0
-15 62 29 -5 -31 0
51 -40 -24 -19 20 0
27 -48 -25 -15 -62 0
-61 -33 2 -27 -48 0
-27 -48 -25 -15 62 0
46 35 4 38 44 0
-17 54 -60 -43 -36 0
-5 -31 41 50 -57 0
37 -18 30 46 35 0
-42 32 -11 -17 54 0
-43 -36 63 58 -14 0
6 66 -53 61 -33 0
-7 39 -22 26 56 0
-26 56 12 6 66 0
-58 -14 52 -51 40 0
-13 9 -10 -42 -32 0
28 59 -45 -7 -39 0
-26 -56 12 -6 66 0
-19 20 -64 34 3 0
-43 36 63 -58 -14 0
26 -56 12 -6 -66 0
34 3 16 37 -18 0
-47 8 -23 -28 59 0
-61 -33 2 27 48 0
-46 -35 -4 38 -44 0
-46 35 4 38 -44 0
17 54 60 -43 -36 0
15 62 29 -5 31 0
34 -3 16 -37 -18 0
51 40 -24 -19 -20 0
-34 -3 16 -37 18 0
47 8 23 -28 59 0
-19 20 -64 -34 -3 0
47 8 23 28 -59 0
-27 -48 25 15 62 0
13 -9 -10 -42 -32 0
50 -57 49 -1 65 0
-17 54 -60 43 36 0
38 -44 55 47 -8 0
42 -32 -11 17 -54 0
6 -66 -53 -61 -33 0
-43 36 -63 58 -14 0
-28 59 -45 7 -39 0
17 -54 -60 -43 -36 0
-19 -20 64 -34 -3 0
-15 -62 29 -5 31 0
-58 -14 -52 51 40 0
5 -31 41 -50 -57 0
-15 -62 -29 5 31 0
7 39 -22 26 -56 0
5 -31 -41 50 -57 0
15 62 29 5 -31 0
-28 -59 45 7 -39 0
-1 65 -21 -13 -9 0
-15 62 -29 -5 31 0
7 -39 -22 26 56 0
-5 31 41 50 57 0
-37 18 -30 -46 35 0
-27 48 25 -15 62 0
51 40 -24 19 20 0
-17 54 60 -43 36 0
19 -20 64 -34 3 0
38 -44 -55 47 8 0
43 36 63 -58 14 0
c p weight 1 0.99254563 0
c p weight -1 0.00745437 0
c p weight 2 0.99680785 0
c p weight -2 0.00319215 0
c p weight 3 0.98956536 0
c p weight -3 0.01043464 0
c p weight 4 0.98791216 0
c p weight -4 0.01208784 0
c p weight 5 0.99497206 0
c p weight -5 0.00502794 0
c p weight 6 0.99472307 0
c p weight -6 0.00527693 0
c p weight 7 0.99197628 0
c p weight -7 0.00802372 0
c p weight 8 0.98283482 0
c p weight -8 0.01716518 0
c p weight 9 0.99388957 0
c p weight -9 0.00611043 0
c p weight 10 0.98575847 0
c p weight -10 0.01424153 0
c p weight 11 0.00700681 0
c p weight -11 0.99299319 0
c p weight 12 0.01174116 0
c p weight -12 0.98825884 0
c p weight 13 0.99896451 0
c p weight -13 0.00103549 0
c p weight 14 0.99283452 0
c p weight -14 0.00716548 0
c p weight 15 0.98563463 0
c p weight -15 0.01436537 0
c p weight 16 0.00612098 0
c p weight -16 0.99387902 0
c p weight 17 0.98214083 0
c p weight -17 0.01785917 0
c p weight 18 0.98893322 0
c p weight -18 0.01106678 0
c p weight 19 0.99674416 0
c p weight -19 0.00325584 0
c p weight 20 0.99941307 0
c p weight -20 0.00058693 0
c p weight 21 0.99283713 0
c p weight -21 0.00716287 0
c p weight 22 0.98042405 0
c p weight -22 0.01957595 0
c p weight 23 0.00745071 0
c p weight -23 0.99254929 0
c p weight 24 0.0155681 0
c p weight -24 0.9844319 0
c p weight 25 0.98248258 0
c p weight -25 0.01751742 0
c p weight 26 0.99496927 0
c p weight -26 0.00503073 0
c p weight 27 0.98833079 0
c p weight -27 0.01166921 0
c p weight 28 0.98583384 0
c p weight -28 0.01416616 0
c p weight 29 0.01599887 0
c p weight -29 0.98400113 0
c p weight 30 0.00743854 0
c p weight -30 0.99256146 0
c p weight 31 0.98702999 0
c p weight -31 0.01297001 0
c p weight 32 0.99478154 0
c p weight -32 0.00521846 0
c p weight 33 0.99530329 0
c p weight -33 0.00469671 0
c p weight 34 0.98930068 0
c p weight -34 0.01069932 0
c p weight 35 0.99396434 0
c p weight -35 0.00603566 0
c p weight 36 0.98519459 0
c p weight -36 0.01480541 0
c p weight 37 0.98245749 0
c p weight -37 0.01754251 0
c p weight 38 0.99203092 0
c p weight -38 0.00796908 0
c p weight 39 0.99334846 0
c p weight -39 0.00665154 0
c p weight 40 0.98246852 0
c p weight -40 0.01753148 0
c p weight 41 0.00818666 0
c p weight -41 0.99181334 0
c p weight 42 0.98930586 0
c p weight -42 0.01069414 0
c p weight 43 0.98235804 0
c p weight -43 0.01764196 0
c p weight 44 0.99260853 0
c p weight -44 0.00739147 0
c p weight 45 0.00515618 0
c p weight -45 0.99484382 0
c p weight 46 0.99014182 0
c p weight -46 0.00985818 0
c p weight 47 0.98532921 0
c p weight -47 0.01467079 0
c p weight 48 0.98872788 0
c p weight -48 0.01127212 0
c p weight 49 0.98720966 0
c p weight -49 0.01279034 0
c p weight 50 0.99682188 0
c p weight -50 0.00317812 0
c p weight 51 0.98860169 0
c p weight -51 0.01139831 0
c p weight 52 0.00942963 0
c p weight -52 0.99057037 0
c p weight 53 0.98443646 0
c p weight -53 0.01556354 0
c p weight 54 0.98135319 0
c p weight -54 0.01864681 0
c p weight 55 0.99476057 0
c p weight -55 0.00523943 0
c p weight 56 0.99840683 0
c p weight -56 0.00159317 0
c p weight 57 0.98959155 0
c p weight -57 0.01040845 0
c p weight 58 0.98762134 0
c p weight -58 0.01237866 0
c p weight 59 0.99118791 0
c p weight -59 0.00881209 0
c p weight 60 0.98265087 0
c p weight -60 0.01734913 0
c p weight 61 0.99867754 0
c p weight -61 0.00132246 0
c p weight 62 0.99040216 0
c p weight -62 0.00959784 0
c p weight 63 0.00594303 0
c p weight -63 0.99405697 0
c p weight 64 0.99302253 0
c p weight -64 0.00697747 0
c p weight 65 0.98877696 0
c p weight -65 0.01122304 0
c p weight 66 0.98120479 0
c p weight -66 0.01879521 0
